 vasp.6.3.0 20Jan22 (build Oct  7 2022 22:46:23) complex
 executed on             LinuxGNU date 2025.04.23  14:53:42

 INCAR:
   SYSTEM = CO2 crystal - PBE
   PREC = Normal
   ISMEAR = 0
   GGA = PE
   ENCUT = 520
   IBRION = -1

 POTCAR:    PAW_PBE C 08Apr2002
 POTCAR:    PAW_PBE C 08Apr2002
 POTCAR:    PAW_PBE C 08Apr2002
   VRHFIN =C: s2p2

   TITEL  = PAW_PBE C 08Apr2002
   POMASS =   12.011; ZVAL   =    4.000    mass and valenz
   ENMAX  =  400.000; ENMIN  =  300.000 eV

   TITEL  = PAW_PBE C 08Apr2002
   POMASS =   12.011; ZVAL   =    4.000    mass and valenz
   ENMAX  =  400.000; ENMIN  =  300.000 eV

  PAW_PBE C 08Apr2002                   :
  PAW_PBE C 08Apr2002                   :

 POSCAR: CO2 crystal
  positions in direct lattice
 exchange correlation table for  LEXCH =        8
   RHO(1)=    0.500       N(1)  =     2000
   RHO(2)=  100.500       N(2)  =     4000

 ion  position               nearest neighbor table
   1  0.000  0.000  0.000-   6 1.17   5 1.17
   2  0.500  1.000  0.500-   8 1.17   7 1.17
   3  0.000  0.500  0.500-  10 1.17   9 1.17
   4  0.500  0.500  0.000-  12 1.17  11 1.17
   5  0.879  0.878  0.121-   1 1.17
   6  0.122  0.122  0.879-   1 1.17
   7  0.622  0.878  0.621-   2 1.17
   8  0.378  0.122  0.379-   2 1.17
   9  0.122  0.623  0.621-   3 1.17
  10  0.879  0.378  0.379-   3 1.17
  11  0.622  0.378  0.879-   4 1.17
  12  0.379  0.622  0.122-   4 1.17

  LATTYP: Found a simple cubic cell.
 ALAT       =     5.5500013527

  Lattice vectors:

 A1 = (   5.5500013527,   0.0000000000,   0.0000000000)
 A2 = (   0.0000000000,   5.5500013527,   0.0000000000)
 A3 = (   0.0000000000,   0.0000000000,   5.5500013527)

Analysis of symmetry for initial positions (statically):
 Subroutine PRICEL returns:
 Original cell was already a primitive cell.

 Routine SETGRP: Setting up the symmetry group for a
 simple cubic supercell.

 Subroutine GETGRP returns: Found  1 space group operations
 (whereof  1 operations were pure point group operations)
 out of a pool of 48 trial point group operations.

The static configuration has the point symmetry C_1 .

Analysis of symmetry for dynamics (positions and initial velocities):
 Subroutine PRICEL returns:
 Original cell was already a primitive cell.

 Routine SETGRP: Setting up the symmetry group for a
 simple cubic supercell.

 Subroutine GETGRP returns: Found  1 space group operations
 (whereof  1 operations were pure point group operations)
 out of a pool of 48 trial point group operations.

The dynamic configuration has the point symmetry C_1 .

 Subroutine INISYM returns: Found  1 space group operations
 (whereof  1 operations are pure point group operations),
 and found     1 'primitive' translations

                                     Primitive cell

  volume of cell :     170.9540

  direct lattice vectors                    reciprocal lattice vectors
     5.550001353  0.000000000  0.000000000     0.180180136  0.000000000  0.000000000
     0.000000000  5.550001353  0.000000000     0.000000000  0.180180136  0.000000000
     0.000000000  0.000000000  5.550001353     0.000000000  0.000000000  0.180180136

  length of vectors
     5.550001353  5.550001353  5.550001353     0.180180136  0.180180136  0.180180136

  position of ions in fractional coordinates (direct lattice)
     0.000159932  0.000234186  0.000005590
     0.499922253  0.999714613  0.500081824
     0.000166576  0.500470126  0.500094094
     0.500407259  0.499744997  0.000323148
     0.878581839  0.878076288  0.121135066
     0.121746336  0.122386257  0.878879909
     0.621505818  0.877768789  0.621413949
     0.378358234  0.121672505  0.378742380
     0.121666288  0.622839880  0.621085408
     0.878674520  0.378093706  0.379105561
     0.622091336  0.377838874  0.879051986
     0.378719609  0.621659779  0.121581084

  ion indices of the primitive-cell ions
   primitive index   ion index
                 1           1
                 2           2
                 3           3
                 4           4
                 5           5
                 6           6
                 7           7
                 8           8
                 9           9
                10          10
                11          11
                12          12

 KPOINTS: K-Points

Automatic generation of k-mesh.
 Grid dimensions read from file:
 generate k-points for:    5    5    5

 Generating k-lattice:

  Cartesian coordinates                     Fractional coordinates (reciprocal lattice)
     0.036036027  0.000000000  0.000000000     0.200000000  0.000000000  0.000000000
     0.000000000  0.036036027  0.000000000     0.000000000  0.200000000  0.000000000
     0.000000000  0.000000000  0.036036027     0.000000000  0.000000000  0.200000000

  Length of vectors
     0.036036027  0.036036027  0.036036027

  Shift w.r.t. Gamma in fractional coordinates (k-lattice)
     0.000000000  0.000000000  0.000000000

 Subroutine IBZKPT returns following result:

 Found     63 irreducible k-points:

 Following reciprocal coordinates:
            Coordinates               Weight
  0.000000  0.000000  0.000000      1.000000
  0.200000  0.000000  0.000000      2.000000
  0.000000  0.200000  0.000000      2.000000
  0.000000  0.000000  0.200000      2.000000
  0.400000  0.000000  0.000000      2.000000
  0.000000  0.400000  0.000000      2.000000
  0.000000  0.000000  0.400000      2.000000
  0.200000  0.200000  0.000000      2.000000
  0.000000  0.200000  0.200000      2.000000
  0.200000  0.000000  0.200000      2.000000
 -0.200000  0.200000  0.000000      2.000000
 -0.200000  0.000000  0.200000      2.000000
  0.000000 -0.200000  0.200000      2.000000
  0.400000  0.200000  0.000000      2.000000
  0.000000  0.400000  0.200000      2.000000
  0.200000  0.000000  0.400000      2.000000
 -0.200000  0.400000  0.000000      2.000000
 -0.400000  0.000000  0.200000      2.000000
  0.000000  0.200000  0.400000      2.000000
  0.000000 -0.400000  0.200000      2.000000
 -0.200000  0.000000  0.400000      2.000000
  0.400000  0.000000  0.200000      2.000000
  0.000000 -0.200000  0.400000      2.000000
  0.400000 -0.200000  0.000000      2.000000
  0.200000  0.400000  0.000000      2.000000
  0.400000  0.400000  0.000000      2.000000
  0.000000  0.400000  0.400000      2.000000
  0.400000  0.000000  0.400000      2.000000
 -0.400000  0.400000  0.000000      2.000000
 -0.400000  0.000000  0.400000      2.000000
  0.000000 -0.400000  0.400000      2.000000
  0.200000  0.200000  0.200000      2.000000
 -0.200000  0.200000  0.200000      2.000000
 -0.200000 -0.200000  0.200000      2.000000
  0.200000 -0.200000  0.200000      2.000000
  0.400000  0.200000  0.200000      2.000000
  0.200000  0.400000  0.200000      2.000000
  0.200000  0.200000  0.400000      2.000000
 -0.200000  0.400000  0.200000      2.000000
 -0.400000  0.200000  0.200000      2.000000
 -0.200000  0.200000  0.400000      2.000000
 -0.400000 -0.200000  0.200000      2.000000
 -0.200000 -0.400000  0.200000      2.000000
 -0.200000 -0.200000  0.400000      2.000000
  0.200000 -0.400000  0.200000      2.000000
  0.400000 -0.200000  0.200000      2.000000
  0.200000 -0.200000  0.400000      2.000000
  0.400000  0.400000  0.200000      2.000000
  0.200000  0.400000  0.400000      2.000000
  0.400000  0.200000  0.400000      2.000000
 -0.400000  0.400000  0.200000      2.000000
 -0.400000  0.200000  0.400000      2.000000
 -0.200000  0.400000  0.400000      2.000000
 -0.400000 -0.400000  0.200000      2.000000
 -0.200000 -0.400000  0.400000      2.000000
 -0.400000 -0.200000  0.400000      2.000000
  0.400000 -0.400000  0.200000      2.000000
  0.400000 -0.200000  0.400000      2.000000
  0.200000 -0.400000  0.400000      2.000000
  0.400000  0.400000  0.400000      2.000000
 -0.400000  0.400000  0.400000      2.000000
 -0.400000 -0.400000  0.400000      2.000000
  0.400000 -0.400000  0.400000      2.000000

 Following cartesian coordinates:
            Coordinates               Weight
  0.000000  0.000000  0.000000      1.000000
  0.200000  0.000000  0.000000      2.000000
  0.000000  0.200000  0.000000      2.000000
  0.000000  0.000000  0.200000      2.000000
  0.400000  0.000000  0.000000      2.000000
  0.000000  0.400000  0.000000      2.000000
  0.000000  0.000000  0.400000      2.000000
  0.200000  0.200000  0.000000      2.000000
  0.000000  0.200000  0.200000      2.000000
  0.200000  0.000000  0.200000      2.000000
 -0.200000  0.200000  0.000000      2.000000
 -0.200000  0.000000  0.200000      2.000000
  0.000000 -0.200000  0.200000      2.000000
  0.400000  0.200000  0.000000      2.000000
  0.000000  0.400000  0.200000      2.000000
  0.200000  0.000000  0.400000      2.000000
 -0.200000  0.400000  0.000000      2.000000
 -0.400000  0.000000  0.200000      2.000000
  0.000000  0.200000  0.400000      2.000000
  0.000000 -0.400000  0.200000      2.000000
 -0.200000  0.000000  0.400000      2.000000
  0.400000  0.000000  0.200000      2.000000
  0.000000 -0.200000  0.400000      2.000000
  0.400000 -0.200000  0.000000      2.000000
  0.200000  0.400000  0.000000      2.000000
  0.400000  0.400000  0.000000      2.000000
  0.000000  0.400000  0.400000      2.000000
  0.400000  0.000000  0.400000      2.000000
 -0.400000  0.400000  0.000000      2.000000
 -0.400000  0.000000  0.400000      2.000000
  0.000000 -0.400000  0.400000      2.000000
  0.200000  0.200000  0.200000      2.000000
 -0.200000  0.200000  0.200000      2.000000
 -0.200000 -0.200000  0.200000      2.000000
  0.200000 -0.200000  0.200000      2.000000
  0.400000  0.200000  0.200000      2.000000
  0.200000  0.400000  0.200000      2.000000
  0.200000  0.200000  0.400000      2.000000
 -0.200000  0.400000  0.200000      2.000000
 -0.400000  0.200000  0.200000      2.000000
 -0.200000  0.200000  0.400000      2.000000
 -0.400000 -0.200000  0.200000      2.000000
 -0.200000 -0.400000  0.200000      2.000000
 -0.200000 -0.200000  0.400000      2.000000
  0.200000 -0.400000  0.200000      2.000000
  0.400000 -0.200000  0.200000      2.000000
  0.200000 -0.200000  0.400000      2.000000
  0.400000  0.400000  0.200000      2.000000
  0.200000  0.400000  0.400000      2.000000
  0.400000  0.200000  0.400000      2.000000
 -0.400000  0.400000  0.200000      2.000000
 -0.400000  0.200000  0.400000      2.000000
 -0.200000  0.400000  0.400000      2.000000
 -0.400000 -0.400000  0.200000      2.000000
 -0.200000 -0.400000  0.400000      2.000000
 -0.400000 -0.200000  0.400000      2.000000
  0.400000 -0.400000  0.200000      2.000000
  0.400000 -0.200000  0.400000      2.000000
  0.200000 -0.400000  0.400000      2.000000
  0.400000  0.400000  0.400000      2.000000
 -0.400000  0.400000  0.400000      2.000000
 -0.400000 -0.400000  0.400000      2.000000
  0.400000 -0.400000  0.400000      2.000000

 SYSTEM =  CO2 crystal - PBE
 POSCAR =  CO2 crystal

 Startparameter for this run:
   NWRITE =      2    write-flag & timer
   PREC   = normal    normal or accurate (medium, high low for compatibility)
   ISTART =      0    job   : 0-new  1-cont  2-samecut
   ICHARG =      2    charge: 1-file 2-atom 10-const
   ISPIN  =      1    spin polarized calculation?
[...]
  217                map_scatter                           0.000532                    6   7
  218        ggaall_grid                           0.013048                            1   3
  219        m_sumb_d                              0.000013                            5   3
  220        forhar                                0.014365                            2   3
  221          m_sumb_d                              0.000168                          2   4
  222        strehar                               0.005716                            1   3
  223          m_sumb_d                              0.000004                          1   4
  224        chggra                                0.007153                            1   3
  225          fft3d_mpi                             0.002341                          3   4
  226            fftbrc_mpi                            0.002185                        3   5
  227              fftbas_plan_mpi                       0.002184                      3   6
  228                dfftw_execute                         0.001023                    9   7
  229                map_backward                          0.000281                    2   7
  230                  map_gather                            0.000107                  1   8
  231                  m_alltoallv_z                         0.000090                  1   8
  232                  map_scatter                           0.000083                  1   8
  233                map_forward                           0.000772                    4   7
  234                  map_gather                            0.000271                  2   8
  235                  m_alltoallv_z                         0.000255                  2   8
  236                  map_scatter                           0.000241                  2   8
  237          m_sumb_d                              0.000001                          2   4
  238          pothar                                0.000790                          1   4
  239            m_sumb_d                              0.000005                        1   5
  240        brmix                                 0.001917                            1   3
  241          m_sumb_d                              0.000009                          6   4
  242          brpre                                 0.000050                          1   4
  243          setg0                                 0.000781                          1   4
  244          broyd                                 0.000502                          1   4
  245            m_sumb_d                              0.000010                       14   5
  246            brget                                 0.000145                       44   5
  247            brsav                                 0.000038                       12   5
  248        m_bcast_d                             0.000005                            2   3
  249      potlok                                0.038458                              1   2
  250        fft3d_mpi                             0.010192                           13   3
  251          fftbrc_mpi                            0.009310                         13   4
  252            fftbas_plan_mpi                       0.009306                       13   5
  253              dfftw_execute                         0.004288                     39   6
  254              map_forward                           0.002365                     14   6
  255                map_gather                            0.000794                    8   7
  256                m_alltoallv_z                         0.000802                    8   7
  257                map_scatter                           0.000759                    8   7
  258              map_backward                          0.002199                     12   6
  259                map_gather                            0.000803                    6   7
  260                m_alltoallv_z                         0.000852                    6   7
  261                map_scatter                           0.000536                    6   7
  262        ggaall_grid                           0.013187                            1   3
  263        m_sumb_d                              0.000021                            5   3
  264        pothar                                0.000515                            1   3
  265          m_sumb_d                              0.000005                          1   4
  266        m_bcast_d                             0.000098                            1   3
  267      potlok_metagga                        0.000000                              1   2
  268      set_dd_magatom                        0.000000                              1   2
  269      set_dd_paw                            0.003583                              1   2
  270        m_sumb_d                              0.000017                            7   3
  271      densta                                0.001916                              1   2
  272        m_sumb_d                              0.000046                           31   3

 Flat profile

 fft3d                                  14.904623       82414
 gemm                                    6.020513      455232
 proj1                                   4.567596       35920
 orth1                                   4.329533       28515
 work_mul_crexp                          3.144552      455232
 vhamil                                  3.054870       37936
 total_time                              2.455974           1
 ggemm                                   2.422277       12508
 fornl                                   2.386487           1
 crexp_mul_wave                          2.377477      431040
 fftwav                                  2.213283       44478
 phase                                   2.101391        1450
 spher                                   1.489119          20
 m_alltoall_d                            1.425880      282688
 lapack                                  1.188677        9484
 eddav                                   0.685836          12
 eccp                                    0.661188       12096
 w1_copy                                 0.598609      113808
 lincom                                  0.464763         819
 redis_pw                                0.376539      103350
 pdssyex_zheevx                          0.323390         756
 kinhamil                                0.301480       37936
 hamiltmu                                0.282686        9484
 fftext_mpi                              0.233894       37936
 pw_charge                               0.225967        6542
 m_sumb_d                                0.223475       32944
 apply_precond                           0.198985       25840
 vnlac0                                  0.191041       37936
 setup_precond                           0.173002       12096
 m_bcast_z                               0.147945       11500
 potlok                                  0.132738           9
 ggaall_grid                             0.130740          10
 overl                                   0.070059       63839
 overl1                                  0.065825       37936
 redis_proj                              0.052682      129253
 dfftw_execute                           0.047140         450
 set_dd_paw                              0.035378          10
 newband                                 0.031092       10240
 strkin                                  0.027673           1
 densta                                  0.022662          13
 m_bcast_d                               0.022339       18982
 fft3d_mpi                               0.022162       38086
 m_alltoallv_z                           0.020742         167
 map_gather                              0.018946         167
 setdij_                                 0.017339          36
 strenl                                  0.016288           1
 map_scatter                             0.014475         167
 forhar                                  0.014197           2
 w1_projall                              0.013902        6460
 force_and_stress                        0.012120           1
 fftwav_mpi                              0.011971       44478
 setg0                                   0.008051           9
 elmin                                   0.008039           1
 augmentation_charge                     0.006702           8
 forloc                                  0.006213           1
 strehar                                 0.005712           1
 fftbas_plan_mpi                         0.005116         150
 inisym                                  0.005019           1
 pothar                                  0.004969          10
 depsum                                  0.004942           8
 soft_charge                             0.004733           8
 brmix                                   0.004455           8
 strelo                                  0.004217           1
 chggra                                  0.004021           1
 stufak                                  0.003611           1
 truncate_high_frequency_w1              0.003076       50032
 broyd                                   0.001286           8
 set_charge                              0.001040           8
 choleski                                0.000772          63
 brget                                   0.000666         206
 rsp                                     0.000665           1
 proj                                    0.000409          63
 brpre                                   0.000401           8
 fewald                                  0.000317           1
 brsav                                   0.000213          69
 orthch                                  0.000193           1
 brgrid                                  0.000158           1
 fft_gq                                  0.000145           8
 map_forward                             0.000125         146
 map_backward                            0.000106         154
 proall                                  0.000048           1
 rcp                                     0.000030           1
 fftbrc_mpi                              0.000029         150
 crpa_reader                             0.000016           1
 fordep                                  0.000007           1
 posmap                                  0.000006           2
 vectorpot                               0.000003           9
 FERMAT_RAZOR                            0.000001           1
 set_dd_magatom                          0.000001          10
 potlok_metagga                          0.000000           9
 rotate_active_occupied_orbital          0.000000           1
 redis_pw_over_bands                     0.000000           1
  summed up times    60.057034969329834

 Accumulative profile

 total_time                             60.057035           1
 elmin                                  50.242972           1
 eddav                                  48.531040          12
 hamiltmu                               20.460566        9484
 fft3d                                  14.904623       82414
 fftwav_mpi                              9.976307       44478
 fftwav                                  9.964336       44478
 vnlac0                                  9.356106       37936
 kinhamil                                7.701079       37936
 fftext_mpi                              7.399599       37936
 fft3d_mpi                               7.282410       38086
 proj1                                   6.945073       35920
 force_and_stress                        6.722173           1
 gemm                                    6.020513      455232
 w1_projall                              5.070700        6460
 orth1                                   4.329533       28515
 newband                                 3.996722       10240
 strenl                                  3.935498           1
 work_mul_crexp                          3.144552      455232
 vhamil                                  3.054870       37936
 fornl                                   2.477495           1
 ggemm                                   2.422277       12508
 crexp_mul_wave                          2.377477      431040
 phase                                   2.101391        1450
 redis_pw                                1.576331      103350
 set_charge                              1.518773           8
 soft_charge                             1.498042           8
 spher                                   1.489119          20
 m_alltoall_d                            1.425880      282688
 lapack                                  1.188677        9484
 eccp                                    0.661188       12096
 w1_copy                                 0.598609      113808
 lincom                                  0.464763         819
 potlok                                  0.347906           9
 pdssyex_zheevx                          0.323391         756
 proall                                  0.280111           1
 redis_proj                              0.278770      129253
 pw_charge                               0.225967        6542
 m_sumb_d                                0.223475       32944
 apply_precond                           0.198985       25840
 proj                                    0.188841          63
 setup_precond                           0.173002       12096
 m_bcast_z                               0.147945       11500
 ggaall_grid                             0.130740          10
 fftbrc_mpi                              0.106678         150
 fftbas_plan_mpi                         0.106649         150
 orthch                                  0.083349           1
 overl                                   0.070059       63839
 overl1                                  0.065825       37936
 dfftw_execute                           0.047140         450
 set_dd_paw                              0.035607          10
 strkin                                  0.027683           1
 map_backward                            0.027258         154
 map_forward                             0.027135         146
 densta                                  0.023063          13
 m_bcast_d                               0.022339       18982
 m_alltoallv_z                           0.020742         167
 map_gather                              0.018946         167
 setdij_                                 0.017718          36
 brmix                                   0.015213           8
 augmentation_charge                     0.014691           8
 map_scatter                             0.014475         167
 forhar                                  0.014365           2
 setg0                                   0.008051           9
 chggra                                  0.007153           1
 forloc                                  0.006218           1
 strehar                                 0.005716           1
 pothar                                  0.005042          10
 inisym                                  0.005025           1
 depsum                                  0.005000           8
 strelo                                  0.004222           1
 stufak                                  0.003611           1
 truncate_high_frequency_w1              0.003076       50032
 fordep                                  0.002945           1
 fft_gq                                  0.002239           8
 broyd                                   0.002216           8
 fewald                                  0.001027           1
 choleski                                0.000772          63
 brget                                   0.000666         206
 rsp                                     0.000665           1
 brpre                                   0.000401           8
 brsav                                   0.000213          69
 brgrid                                  0.000158           1
 rcp                                     0.000030           1
 crpa_reader                             0.000016           1
 posmap                                  0.000006           2
 vectorpot                               0.000003           9
 FERMAT_RAZOR                            0.000001           1
 set_dd_magatom                          0.000001          10
 potlok_metagga                          0.000000           9
 rotate_active_occupied_orbital          0.000000           1
 redis_pw_over_bands                     0.000000           1

Profiling took   0.265424  0.130914  0.002140  0.002100 seconds
Profiling took   0.196091 seconds