 vasp.6.3.0 20Jan22 (build Oct  7 2022 22:46:23) complex
 executed on             LinuxGNU date 2025.04.17  10:43:13

 INCAR:
   SYSTEM = fcc Si
   ENCUT = 240
   ISMEAR = -5
   LORBIT = 11

 POTCAR:    PAW_PBE Si 05Jan2001
 POTCAR:    PAW_PBE Si 05Jan2001
   VRHFIN =Si: s2p2

   TITEL  = PAW_PBE Si 05Jan2001
   POMASS =   28.085; ZVAL   =    4.000    mass and valenz
   ENMAX  =  245.345; ENMIN  =  184.009 eV

  PAW_PBE Si 05Jan2001                  :

 POSCAR: fcc Si
  positions in cartesian coordinates
 exchange correlation table for  LEXCH =        8
   RHO(1)=    0.500       N(1)  =     2000
   RHO(2)=  100.500       N(2)  =     4000

 ion  position               nearest neighbor table
   1  0.000  0.000  0.000-

  LATTYP: Found a face centered cubic cell.
 ALAT       =     3.9000000000

  Lattice vectors:

 A1 = (   0.0000000000,   1.9500000000,   1.9500000000)
 A2 = (   1.9500000000,   0.0000000000,   1.9500000000)
 A3 = (   1.9500000000,   1.9500000000,   0.0000000000)

Analysis of symmetry for initial positions (statically):
 Subroutine PRICEL returns:
 Original cell was already a primitive cell.

 Routine SETGRP: Setting up the symmetry group for a
 face centered cubic supercell.

 Subroutine GETGRP returns: Found 48 space group operations
 (whereof 48 operations were pure point group operations)
 out of a pool of 48 trial point group operations.

The static configuration has the point symmetry O_h .

Analysis of symmetry for dynamics (positions and initial velocities):
 Subroutine PRICEL returns:
 Original cell was already a primitive cell.

 Routine SETGRP: Setting up the symmetry group for a
 face centered cubic supercell.

 Subroutine GETGRP returns: Found 48 space group operations
 (whereof 48 operations were pure point group operations)
 out of a pool of 48 trial point group operations.

The dynamic configuration has the point symmetry O_h .

 Subroutine INISYM returns: Found 48 space group operations
 (whereof 48 operations are pure point group operations),
 and found     1 'primitive' translations

                                     Primitive cell

  volume of cell :      14.8297

  direct lattice vectors                    reciprocal lattice vectors
     0.000000000  1.950000000  1.950000000    -0.256410256  0.256410256  0.256410256
     1.950000000  0.000000000  1.950000000     0.256410256 -0.256410256  0.256410256
     1.950000000  1.950000000  0.000000000     0.256410256  0.256410256 -0.256410256

  length of vectors
     2.757716447  2.757716447  2.757716447     0.444115592  0.444115592  0.444115592

  position of ions in fractional coordinates (direct lattice)
     0.000000000  0.000000000  0.000000000

  ion indices of the primitive-cell ions
   primitive index   ion index
                 1           1

 KPOINTS: K-Points

Automatic generation of k-mesh.
 Grid dimensions read from file:
 generate k-points for:   15   15   15

 Generating k-lattice:

  Cartesian coordinates                     Fractional coordinates (reciprocal lattice)
    -0.017094017  0.017094017  0.017094017     0.066666667  0.000000000 -0.000000000
     0.017094017 -0.017094017  0.017094017     0.000000000  0.066666667  0.000000000
     0.017094017  0.017094017 -0.017094017    -0.000000000 -0.000000000  0.066666667

  Length of vectors
     0.029607706  0.029607706  0.029607706

  Shift w.r.t. Gamma in fractional coordinates (k-lattice)
     0.000000000  0.000000000  0.000000000

 TETIRR: Found    484 inequivalent tetrahedra from    20250

 Subroutine IBZKPT returns following result:

 Found    120 irreducible k-points:

 Following reciprocal coordinates:
            Coordinates               Weight
  0.000000  0.000000  0.000000      1.000000
  0.066667  0.000000  0.000000      8.000000
  0.133333  0.000000  0.000000      8.000000
  0.200000  0.000000  0.000000      8.000000
  0.266667  0.000000  0.000000      8.000000
  0.333333  0.000000  0.000000      8.000000
  0.400000  0.000000  0.000000      8.000000
  0.466667  0.000000  0.000000      8.000000
  0.066667  0.066667  0.000000      6.000000
  0.133333  0.066667  0.000000     24.000000
  0.200000  0.066667  0.000000     24.000000
  0.266667  0.066667  0.000000     24.000000
  0.333333  0.066667  0.000000     24.000000
  0.400000  0.066667  0.000000     24.000000
  0.466667  0.066667  0.000000     24.000000
 -0.466667  0.066667  0.000000     24.000000
 -0.400000  0.066667  0.000000     24.000000
 -0.333333  0.066667  0.000000     24.000000
 -0.266667  0.066667  0.000000     24.000000
 -0.200000  0.066667  0.000000     24.000000
 -0.133333  0.066667  0.000000     24.000000
 -0.066667  0.066667  0.000000     12.000000
  0.133333  0.133333  0.000000      6.000000
  0.200000  0.133333  0.000000     24.000000
  0.266667  0.133333  0.000000     24.000000
  0.333333  0.133333  0.000000     24.000000
  0.400000  0.133333  0.000000     24.000000
  0.466667  0.133333  0.000000     24.000000
 -0.466667  0.133333  0.000000     24.000000
 -0.400000  0.133333  0.000000     24.000000
 -0.333333  0.133333  0.000000     24.000000
 -0.266667  0.133333  0.000000     24.000000
 -0.200000  0.133333  0.000000     24.000000
 -0.133333  0.133333  0.000000     12.000000
  0.200000  0.200000  0.000000      6.000000
  0.266667  0.200000  0.000000     24.000000
  0.333333  0.200000  0.000000     24.000000
  0.400000  0.200000  0.000000     24.000000
  0.466667  0.200000  0.000000     24.000000
 -0.466667  0.200000  0.000000     24.000000
 -0.400000  0.200000  0.000000     24.000000
 -0.333333  0.200000  0.000000     24.000000
 -0.266667  0.200000  0.000000     24.000000
 -0.200000  0.200000  0.000000     12.000000
  0.266667  0.266667  0.000000      6.000000
  0.333333  0.266667  0.000000     24.000000
  0.400000  0.266667  0.000000     24.000000
  0.466667  0.266667  0.000000     24.000000
 -0.466667  0.266667  0.000000     24.000000
 -0.400000  0.266667  0.000000     24.000000
 -0.333333  0.266667  0.000000     24.000000
 -0.266667  0.266667  0.000000     12.000000
  0.333333  0.333333  0.000000      6.000000
  0.400000  0.333333  0.000000     24.000000
  0.466667  0.333333  0.000000     24.000000
 -0.466667  0.333333  0.000000     24.000000
 -0.400000  0.333333  0.000000     24.000000
 -0.333333  0.333333  0.000000     12.000000
  0.400000  0.400000  0.000000      6.000000
  0.466667  0.400000  0.000000     24.000000
[...]
 -0.466667  0.333333  0.133333     48.000000
 -0.400000  0.333333  0.133333     48.000000
 -0.333333  0.333333  0.133333     48.000000
 -0.266667  0.333333  0.133333     48.000000
 -0.200000  0.333333  0.133333     24.000000
 -0.466667  0.400000  0.133333     24.000000
 -0.400000  0.400000  0.133333     48.000000
 -0.333333  0.400000  0.133333     48.000000
 -0.266667  0.400000  0.133333     24.000000
 -0.400000  0.466667  0.133333     24.000000
 -0.333333  0.466667  0.133333     24.000000
 -0.400000  0.400000  0.200000     24.000000
 -0.333333  0.400000  0.200000     48.000000
 -0.333333  0.466667  0.200000     24.000000
 -0.266667  0.466667  0.200000     24.000000

 Following cartesian coordinates:
            Coordinates               Weight
  0.000000  0.000000  0.000000      1.000000
 -0.066667  0.066667  0.066667      8.000000
 -0.133333  0.133333  0.133333      8.000000
 -0.200000  0.200000  0.200000      8.000000
 -0.266667  0.266667  0.266667      8.000000
 -0.333333  0.333333  0.333333      8.000000
 -0.400000  0.400000  0.400000      8.000000
 -0.466667  0.466667  0.466667      8.000000
  0.000000  0.000000  0.133333      6.000000
 -0.066667  0.066667  0.200000     24.000000
 -0.133333  0.133333  0.266667     24.000000
 -0.200000  0.200000  0.333333     24.000000
 -0.266667  0.266667  0.400000     24.000000
 -0.333333  0.333333  0.466667     24.000000
 -0.400000  0.400000  0.533333     24.000000
  0.533333 -0.533333 -0.400000     24.000000
  0.466667 -0.466667 -0.333333     24.000000
  0.400000 -0.400000 -0.266667     24.000000
  0.333333 -0.333333 -0.200000     24.000000
  0.266667 -0.266667 -0.133333     24.000000
  0.200000 -0.200000 -0.066667     24.000000
  0.133333 -0.133333  0.000000     12.000000
  0.000000  0.000000  0.266667      6.000000
 -0.066667  0.066667  0.333333     24.000000
 -0.133333  0.133333  0.400000     24.000000
 -0.200000  0.200000  0.466667     24.000000
 -0.266667  0.266667  0.533333     24.000000
 -0.333333  0.333333  0.600000     24.000000
  0.600000 -0.600000 -0.333333     24.000000
  0.533333 -0.533333 -0.266667     24.000000
  0.466667 -0.466667 -0.200000     24.000000
  0.400000 -0.400000 -0.133333     24.000000
  0.333333 -0.333333 -0.066667     24.000000
  0.266667 -0.266667  0.000000     12.000000
  0.000000  0.000000  0.400000      6.000000
 -0.066667  0.066667  0.466667     24.000000
 -0.133333  0.133333  0.533333     24.000000
 -0.200000  0.200000  0.600000     24.000000
 -0.266667  0.266667  0.666667     24.000000
  0.666667 -0.666667 -0.266667     24.000000
  0.600000 -0.600000 -0.200000     24.000000
  0.533333 -0.533333 -0.133333     24.000000
  0.466667 -0.466667 -0.066667     24.000000
  0.400000 -0.400000  0.000000     12.000000
  0.000000  0.000000  0.533333      6.000000
 -0.066667  0.066667  0.600000     24.000000
 -0.133333  0.133333  0.666667     24.000000
 -0.200000  0.200000  0.733333     24.000000
  0.733333 -0.733333 -0.200000     24.000000
  0.666667 -0.666667 -0.133333     24.000000
  0.600000 -0.600000 -0.066667     24.000000
  0.533333 -0.533333  0.000000     12.000000
  0.000000  0.000000  0.666667      6.000000
 -0.066667  0.066667  0.733333     24.000000
 -0.133333  0.133333  0.800000     24.000000
  0.800000 -0.800000 -0.133333     24.000000
  0.733333 -0.733333 -0.066667     24.000000
  0.666667 -0.666667  0.000000     12.000000
  0.000000  0.000000  0.800000      6.000000
 -0.066667  0.066667  0.866667     24.000000
[...]
  0.933333 -0.666667 -0.266667     48.000000
  0.866667 -0.600000 -0.200000     48.000000
  0.800000 -0.533333 -0.133333     48.000000
  0.733333 -0.466667 -0.066667     48.000000
  0.666667 -0.400000  0.000000     24.000000
  1.000000 -0.733333 -0.200000     24.000000
  0.933333 -0.666667 -0.133333     48.000000
  0.866667 -0.600000 -0.066667     48.000000
  0.800000 -0.533333  0.000000     24.000000
  1.000000 -0.733333 -0.066667     24.000000
  0.933333 -0.666667  0.000000     24.000000
  1.000000 -0.600000 -0.200000     24.000000
  0.933333 -0.533333 -0.133333     48.000000
  1.000000 -0.600000 -0.066667     24.000000
  0.933333 -0.533333  0.000000     24.000000

 SYSTEM =  fcc Si
 POSCAR =  fcc Si

 Startparameter for this run:
   NWRITE =      2    write-flag & timer
   PREC   = normal    normal or accurate (medium, high low for compatibility)
   ISTART =      0    job   : 0-new  1-cont  2-samecut
   ICHARG =      2    charge: 1-file 2-atom 10-const
   ISPIN  =      1    spin polarized calculation?
   LNONCOLLINEAR =      F non collinear calculations
   LSORBIT =      F    spin-orbit coupling
   INIWAV =      1    electr: 0-lowe 1-rand  2-diag
   LASPH  =      F    aspherical Exc in radial PAW
 Electronic Relaxation 1
   ENCUT  =  240.0 eV  17.64 Ry    4.20 a.u.   3.48  3.48  3.48*2*pi/ulx,y,z
   ENINI  =  240.0     initial cutoff
[...]
  215                map_gather                            0.000010                    6   7
  216                m_alltoallv_z                         0.000027                    6   7
  217                map_scatter                           0.000010                    6   7
  218        ggaall_grid                           0.000400                            1   3
  219        m_sumb_d                              0.000003                            5   3
  220        forhar                                0.000136                            2   3
  221          m_sumb_d                              0.000002                          2   4
  222        strehar                               0.000100                            1   3
  223          m_sumb_d                              0.000001                          1   4
  224        chggra                                0.000226                            1   3
  225          fft3d_mpi                             0.000093                          3   4
  226            fftbrc_mpi                            0.000089                        3   5
  227              fftbas_plan_mpi                       0.000087                      3   6
  228                dfftw_execute                         0.000022                    9   7
  229                map_backward                          0.000009                    2   7
  230                  map_gather                            0.000002                  1   8
  231                  m_alltoallv_z                         0.000005                  1   8
  232                  map_scatter                           0.000002                  1   8
  233                map_forward                           0.000019                    4   7
  234                  map_gather                            0.000004                  2   8
  235                  m_alltoallv_z                         0.000010                  2   8
  236                  map_scatter                           0.000005                  2   8
  237          m_sumb_d                              0.000001                          2   4
  238          pothar                                0.000014                          1   4
  239            m_sumb_d                              0.000001                        1   5
  240        brmix                                 0.000092                            1   3
  241          m_sumb_d                              0.000002                          6   4
  242          brpre                                 0.000002                          1   4
  243          setg0                                 0.000026                          1   4
  244          broyd                                 0.000041                          1   4
  245            m_sumb_d                              0.000004                       10   5
  246            brget                                 0.000008                       24   5
  247            brsav                                 0.000000                        8   5
  248        m_bcast_d                             0.000003                            2   3
  249      potlok                                0.001141                              1   2
  250        fft3d_mpi                             0.000402                           13   3
  251          fftbrc_mpi                            0.000372                         13   4
  252            fftbas_plan_mpi                       0.000370                       13   5
  253              dfftw_execute                         0.000088                     39   6
  254              map_forward                           0.000066                     14   6
  255                map_gather                            0.000010                    8   7
  256                m_alltoallv_z                         0.000032                    8   7
  257                map_scatter                           0.000017                    8   7
  258              map_backward                          0.000053                     12   6
  259                map_gather                            0.000010                    6   7
  260                m_alltoallv_z                         0.000027                    6   7
  261                map_scatter                           0.000012                    6   7
  262        ggaall_grid                           0.000398                            1   3
  263        m_sumb_d                              0.000003                            5   3
  264        pothar                                0.000013                            1   3
  265          m_sumb_d                              0.000000                          1   4
  266        m_bcast_d                             0.000004                            1   3
  267      potlok_metagga                        0.000001                              1   2
  268      set_dd_magatom                        0.000000                              1   2
  269      set_dd_paw                            0.000546                              1   2
  270        m_sumb_d                              0.000540                            7   3
  271      densta                                0.028678                              1   2

 Flat profile

 fft3d                                   0.566324       19940
 total_time                              0.560485           1
 lapack                                  0.227653        3208
 densta                                  0.080729           9
 eddav                                   0.074254           8
 m_alltoall_d                            0.049290       72048
 spher                                   0.037076          20
 redis_pw                                0.032963       28152
 hamiltmu                                0.030208        3208
 orth1                                   0.020210        8784
 m_sumb_d                                0.019854       10739
 m_bcast_z                               0.017734        3928
 vhamil                                  0.011814        9624
 fftwav                                  0.009379       10316
 sphpro_fast                             0.008721           2
 redis_proj                              0.007789       35016
 ggemm                                   0.007187        3208
 newband                                 0.005996        4168
 proj1                                   0.005519       10344
 inisym                                  0.004975           1
 eccp                                    0.004950        2880
 m_bcast_d                               0.004902        6426
 gemm                                    0.004786        9624
 vnlac0                                  0.003928        9624
 kinhamil                                0.003500        9624
 fftext_mpi                              0.003154        9624
 w1_copy                                 0.003132       28872
 elmin                                   0.002625           1
 ggaall_grid                             0.002477           6
 phase                                   0.002464        2281
 overl                                   0.002436       16488
 fft3d_mpi                               0.002231        9714
 fornl                                   0.002143           1
 fftwav_mpi                              0.002092       10316
 w1_projall                              0.001991        2248
 work_mul_crexp                          0.001740        9624
 potlok                                  0.001688           5
 crexp_mul_wave                          0.001600       10344
 overl1                                  0.001596        9624
 setdij_                                 0.001414          32
 apply_precond                           0.001377        6744
 setup_precond                           0.001313        2880
 strenl                                  0.001311           1
 fftbas_plan_mpi                         0.001256          90
 pw_charge                               0.000712         692
 dfftw_execute                           0.000643         270
 truncate_high_frequency_w1              0.000607       12504
 m_alltoallv_z                           0.000582          99
 force_and_stress                        0.000458           1
 set_charge                              0.000402           4
 augmentation_charge                     0.000312           4
 fewald                                  0.000301           1
 soft_charge                             0.000296           4
 strkin                                  0.000271           1
 orthch                                  0.000254           1
 lincom                                  0.000216         120
 map_scatter                             0.000191          99
 map_gather                              0.000173          99
 forhar                                  0.000134           2
 chggra                                  0.000118           1
 setg0                                   0.000108           5
 broyd                                   0.000102           4
 strehar                                 0.000099           1
 depsum                                  0.000092           4
 strelo                                  0.000091           1
 brmix                                   0.000083           4
 choleski                                0.000082         120
 proj                                    0.000081         120
 pothar                                  0.000078           6
 map_forward                             0.000052          90
 forloc                                  0.000051           1
 proall                                  0.000042           1
 map_backward                            0.000033          90
 set_dd_paw                              0.000029           6
 brgrid                                  0.000024           1
 fftbrc_mpi                              0.000022          90
 stufak                                  0.000020           1
 rsp                                     0.000018           1
 crpa_reader                             0.000017           1
 brget                                   0.000015          60
 posmap                                  0.000011           2
 brpre                                   0.000009           4
 brsav                                   0.000004          26
 rcp                                     0.000004           1
 fft_gq                                  0.000002           4
 fordep                                  0.000002           1
 potlok_metagga                          0.000001           5
 set_dd_magatom                          0.000001           6
 rotate_active_occupied_orbital          0.000000           1
 redis_pw_over_bands                     0.000000           1
 vectorpot                               0.000000           5
  summed up times    1.8451049327850342

 Accumulative profile

 total_time                              1.845105           1
 elmin                                   1.181372           1
 eddav                                   1.100538           8
 fft3d                                   0.566324       19940
 hamiltmu                                0.331580        3208
 fftwav_mpi                              0.308966       10316
 fftwav                                  0.306874       10316
 kinhamil                                0.277510        9624
 fft3d_mpi                               0.274011        9714
 fftext_mpi                              0.274010        9624
 lapack                                  0.227653        3208
 newband                                 0.112546        4168
 densta                                  0.080729           9
 redis_pw                                0.062809       28152
 force_and_stress                        0.051320           1
 m_alltoall_d                            0.049290       72048
 strenl                                  0.039350           1
 spher                                   0.037076          20
 redis_proj                              0.027232       35016
 set_charge                              0.024006           4
 soft_charge                             0.023014           4
 orth1                                   0.020210        8784
 m_sumb_d                                0.019854       10739
 m_bcast_z                               0.017734        3928
 vhamil                                  0.011814        9624
 vnlac0                                  0.010453        9624
 sphpro_fast                             0.008795           2
 ggemm                                   0.007187        3208
 proj1                                   0.007118       10344
 w1_projall                              0.006847        2248
 potlok                                  0.006102           5
 inisym                                  0.004986           1
 eccp                                    0.004950        2880
 m_bcast_d                               0.004902        6426
 gemm                                    0.004786        9624
 set_dd_paw                              0.003367           6
 w1_copy                                 0.003132       28872
 fftbrc_mpi                              0.002952          90
 fftbas_plan_mpi                         0.002930          90
 ggaall_grid                             0.002477           6
 phase                                   0.002464        2281
 overl                                   0.002436       16488
 fornl                                   0.002269           1
 orthch                                  0.002124           1
 work_mul_crexp                          0.001740        9624
 crexp_mul_wave                          0.001600       10344
 overl1                                  0.001596        9624
 setdij_                                 0.001472          32
 apply_precond                           0.001377        6744
 setup_precond                           0.001313        2880
 pw_charge                               0.000712         692
 dfftw_execute                           0.000643         270
 truncate_high_frequency_w1              0.000607       12504
 map_forward                             0.000595          90
 m_alltoallv_z                           0.000582          99
 proall                                  0.000493           1
 augmentation_charge                     0.000469           4
 map_backward                            0.000436          90
 brmix                                   0.000350           4
 proj                                    0.000329         120
 fewald                                  0.000325           1
 strkin                                  0.000273           1
 fordep                                  0.000258           1
 chggra                                  0.000226           1
 lincom                                  0.000216         120
 map_scatter                             0.000191          99
 map_gather                              0.000173          99
 forhar                                  0.000136           2
 broyd                                   0.000136           4
 fft_gq                                  0.000127           4
 setg0                                   0.000108           5
 strehar                                 0.000100           1
 depsum                                  0.000098           4
 strelo                                  0.000092           1
 choleski                                0.000082         120
 pothar                                  0.000081           6
 forloc                                  0.000052           1
 brgrid                                  0.000024           1
 stufak                                  0.000020           1
 rsp                                     0.000018           1
 crpa_reader                             0.000017           1
 brget                                   0.000015          60
 posmap                                  0.000011           2
 brpre                                   0.000009           4
 brsav                                   0.000004          26
 rcp                                     0.000004           1
 potlok_metagga                          0.000001           5
 set_dd_magatom                          0.000001           6
 rotate_active_occupied_orbital          0.000000           1
 redis_pw_over_bands                     0.000000           1
 vectorpot                               0.000000           5

Profiling took   0.045255  0.020714  0.002249  0.002217 seconds
Profiling took   0.022224 seconds