 vasp.6.3.0 20Jan22 (build Oct  7 2022 22:46:23) complex
 executed on             LinuxGNU date 2025.04.17  11:07:22

 INCAR:
   SYSTEM = fcc Si
   ICHARG = 11
   ENCUT = 240
   ISMEAR = 0
   SIGMA = 0.1
   LORBIT = 11

 POTCAR:    PAW_PBE Si 05Jan2001
 POTCAR:    PAW_PBE Si 05Jan2001
   VRHFIN =Si: s2p2

   TITEL  = PAW_PBE Si 05Jan2001
   POMASS =   28.085; ZVAL   =    4.000    mass and valenz
   ENMAX  =  245.345; ENMIN  =  184.009 eV

  PAW_PBE Si 05Jan2001                  :

 POSCAR: fcc Si
  positions in cartesian coordinates
 exchange correlation table for  LEXCH =        8
   RHO(1)=    0.500       N(1)  =     2000
   RHO(2)=  100.500       N(2)  =     4000

 ion  position               nearest neighbor table
   1  0.000  0.000  0.000-

  LATTYP: Found a face centered cubic cell.
 ALAT       =     3.9000000000

  Lattice vectors:

 A1 = (   1.9500000000,   1.9500000000,   0.0000000000)
 A2 = (   0.0000000000,   1.9500000000,   1.9500000000)
 A3 = (   1.9500000000,   0.0000000000,   1.9500000000)

Analysis of symmetry for initial positions (statically):
 Subroutine PRICEL returns:
 Original cell was already a primitive cell.

 Routine SETGRP: Setting up the symmetry group for a
 face centered cubic supercell.

 Subroutine GETGRP returns: Found 48 space group operations
 (whereof 48 operations were pure point group operations)
 out of a pool of 48 trial point group operations.

The static configuration has the point symmetry O_h .

Analysis of symmetry for dynamics (positions and initial velocities):
 Subroutine PRICEL returns:
 Original cell was already a primitive cell.

 Routine SETGRP: Setting up the symmetry group for a
 face centered cubic supercell.

 Subroutine GETGRP returns: Found 48 space group operations
 (whereof 48 operations were pure point group operations)
 out of a pool of 48 trial point group operations.

The dynamic configuration has the point symmetry O_h .

 Subroutine INISYM returns: Found 48 space group operations
 (whereof 48 operations are pure point group operations),
 and found     1 'primitive' translations

                                     Primitive cell

  volume of cell :      14.8297

  direct lattice vectors                    reciprocal lattice vectors
     1.950000000  1.950000000  0.000000000     0.256410256  0.256410256 -0.256410256
     0.000000000  1.950000000  1.950000000    -0.256410256  0.256410256  0.256410256
     1.950000000  0.000000000  1.950000000     0.256410256 -0.256410256  0.256410256

  length of vectors
     2.757716447  2.757716447  2.757716447     0.444115592  0.444115592  0.444115592

  position of ions in fractional coordinates (direct lattice)
     0.000000000  0.000000000  0.000000000

  ion indices of the primitive-cell ions
   primitive index   ion index
                 1           1

 KPOINTS: kpoints for band structure L-G-X-U K-G

Interpolating k-points between supplied coordinates.

 Line segments in fractional coordinates (reciprocal lattice):
    0.500000  0.500000  0.500000  ...  0.000000  0.000000  0.000000
    0.000000  0.000000  0.000000  ...  0.000000  0.500000  0.500000
    0.000000  0.500000  0.500000  ...  0.250000  0.625000  0.625000
    0.375000  0.750000  0.375000  ...  0.000000  0.000000  0.000000

 Generated    10 points on each line segment, for a total of     40 k-points:

 Following reciprocal coordinates:
            Coordinates               Weight
  0.500000  0.500000  0.500000      0.025000
  0.444444  0.444444  0.444444      0.025000
  0.388889  0.388889  0.388889      0.025000
  0.333333  0.333333  0.333333      0.025000
  0.277778  0.277778  0.277778      0.025000
  0.222222  0.222222  0.222222      0.025000
  0.166667  0.166667  0.166667      0.025000
  0.111111  0.111111  0.111111      0.025000
  0.055556  0.055556  0.055556      0.025000
  0.000000  0.000000  0.000000      0.025000
  0.000000  0.000000  0.000000      0.025000
  0.000000  0.055556  0.055556      0.025000
  0.000000  0.111111  0.111111      0.025000
  0.000000  0.166667  0.166667      0.025000
  0.000000  0.222222  0.222222      0.025000
  0.000000  0.277778  0.277778      0.025000
  0.000000  0.333333  0.333333      0.025000
  0.000000  0.388889  0.388889      0.025000
  0.000000  0.444444  0.444444      0.025000
  0.000000  0.500000  0.500000      0.025000
  0.000000  0.500000  0.500000      0.025000
  0.027778  0.513889  0.513889      0.025000
  0.055556  0.527778  0.527778      0.025000
  0.083333  0.541667  0.541667      0.025000
  0.111111  0.555556  0.555556      0.025000
  0.138889  0.569444  0.569444      0.025000
  0.166667  0.583333  0.583333      0.025000
  0.194444  0.597222  0.597222      0.025000
  0.222222  0.611111  0.611111      0.025000
  0.250000  0.625000  0.625000      0.025000
  0.375000  0.750000  0.375000      0.025000
  0.333333  0.666667  0.333333      0.025000
  0.291667  0.583333  0.291667      0.025000
  0.250000  0.500000  0.250000      0.025000
  0.208333  0.416667  0.208333      0.025000
  0.166667  0.333333  0.166667      0.025000
  0.125000  0.250000  0.125000      0.025000
  0.083333  0.166667  0.083333      0.025000
  0.041667  0.083333  0.041667      0.025000
  0.000000  0.000000  0.000000      0.025000

 Following cartesian coordinates:
            Coordinates               Weight
  0.500000  0.500000  0.500000      0.025000
  0.444444  0.444444  0.444444      0.025000
  0.388889  0.388889  0.388889      0.025000
  0.333333  0.333333  0.333333      0.025000
  0.277778  0.277778  0.277778      0.025000
  0.222222  0.222222  0.222222      0.025000
  0.166667  0.166667  0.166667      0.025000
  0.111111  0.111111  0.111111      0.025000
  0.055556  0.055556  0.055556      0.025000
  0.000000  0.000000  0.000000      0.025000
  0.000000  0.000000  0.000000      0.025000
 -0.000000  0.000000  0.111111      0.025000
 -0.000000  0.000000  0.222222      0.025000
 -0.000000  0.000000  0.333333      0.025000
 -0.000000  0.000000  0.444444      0.025000
 -0.000000  0.000000  0.555556      0.025000
 -0.000000  0.000000  0.666667      0.025000
  0.000000 -0.000000  0.777778      0.025000
 -0.000000  0.000000  0.888889      0.025000
  0.000000  0.000000  1.000000      0.025000
  0.000000  0.000000  1.000000      0.025000
  0.027778  0.027778  1.000000      0.025000
  0.055556  0.055556  1.000000      0.025000
  0.083333  0.083333  1.000000      0.025000
  0.111111  0.111111  1.000000      0.025000
  0.138889  0.138889  1.000000      0.025000
  0.166667  0.166667  1.000000      0.025000
  0.194444  0.194444  1.000000      0.025000
  0.222222  0.222222  1.000000      0.025000
  0.250000  0.250000  1.000000      0.025000
  0.000000  0.750000  0.750000      0.025000
 -0.000000  0.666667  0.666667      0.025000
  0.000000  0.583333  0.583333      0.025000
  0.000000  0.500000  0.500000      0.025000
  0.000000  0.416667  0.416667      0.025000
  0.000000  0.333333  0.333333      0.025000
  0.000000  0.250000  0.250000      0.025000
  0.000000  0.166667  0.166667      0.025000
  0.000000  0.083333  0.083333      0.025000
  0.000000  0.000000  0.000000      0.025000

 SYSTEM =  fcc Si
 POSCAR =  fcc Si

 Startparameter for this run:
   NWRITE =      2    write-flag & timer
   PREC   = normal    normal or accurate (medium, high low for compatibility)
   ISTART =      0    job   : 0-new  1-cont  2-samecut
   ICHARG =     11    charge: 1-file 2-atom 10-const
   ISPIN  =      1    spin polarized calculation?
   LNONCOLLINEAR =      F non collinear calculations
   LSORBIT =      F    spin-orbit coupling
   INIWAV =      1    electr: 0-lowe 1-rand  2-diag
   LASPH  =      F    aspherical Exc in radial PAW
 Electronic Relaxation 1
   ENCUT  =  240.0 eV  17.64 Ry    4.20 a.u.   3.48  3.48  3.48*2*pi/ulx,y,z
   ENINI  =  240.0     initial cutoff
   ENAUG  =  322.1 eV  augmentation charge cutoff
   NELM   =     60;   NELMIN=  2; NELMDL= -5     # of ELM steps
   EDIFF  = 0.1E-03   stopping-criterion for ELM
   LREAL  =      F    real-space projection
   NLSPLINE    = F    spline interpolate recip. space projectors
   LCOMPAT=      F    compatible to vasp.4.4
   GGA_COMPAT  = T    GGA compatible to vasp.4.4-vasp.4.6
   LMAXPAW     = -100 max onsite density
   LMAXMIX     =    2 max onsite mixed and CHGCAR
   VOSKOWN=      0    Vosko Wilk Nusair interpolation
   ROPT   =    0.00000
 Ionic relaxation
   EDIFFG = 0.1E-02   stopping-criterion for IOM
   NSW    =      0    number of steps for IOM
   NBLOCK =      1;   KBLOCK =      1    inner block; outer block
   IBRION =     -1    ionic relax: 0-MD 1-quasi-New 2-CG
   NFREE  =      0    steps in history (QN), initial steepest desc. (CG)
   ISIF   =      2    stress and relaxation
   IWAVPR =     10    prediction:  0-non 1-charg 2-wave 3-comb
   ISYM   =      2    0-nonsym 1-usesym 2-fastsym
   LCORR  =      T    Harris-Foulkes like correction to forces

   POTIM  = 0.5000    time-step for ionic-motion
   TEIN   =    0.0    initial temperature
   TEBEG  =    0.0;   TEEND  =   0.0 temperature during run
   SMASS  =  -3.00    Nose mass-parameter (am)
   estimated Nose-frequenzy (Omega)   =  0.10E-29 period in steps = 0.13E+47 mass=  -0.174E-27a.u.
   SCALEE = 1.0000    scale energy and forces
   NPACO  =    256;   APACO  = 10.0  distance and # of slots for P.C.
   PSTRESS=    0.0 pullay stress

  Mass of Ions in am
   POMASS =  28.09
  Ionic Valenz
   ZVAL   =   4.00
  Atomic Wigner-Seitz radii
  virtual crystal weights
   VCA    =   1.00
   NELECT =       4.0000    total number of electrons
   NUPDOWN=      -1.0000    fix difference up-down

 DOS related values:
   EMIN   =  10.00;   EMAX   =-10.00  energy-range for DOS
   EFERMI =   0.00
   ISMEAR =     0;   SIGMA  =   0.10  broadening in eV -4-tet -1-fermi 0-gaus

 Electronic relaxation 2 (details)
   IALGO  =     38    algorithm
   LDIAG  =      T    sub-space diagonalisation (order eigenvalues)
   LSUBROT=      F    optimize rotation matrix (better conditioning)
   TURBO    =      0    0=normal 1=particle mesh
   IRESTART =      0    0=no restart 2=restart with 2 vectors
   NREBOOT  =      0    no. of reboots
   NMIN     =      0    reboot dimension
   EREF     =   0.00    reference energy to select bands
   IMIX   =      4    mixing-type and parameters
     AMIX     =   0.40;   BMIX     =  1.00
     AMIX_MAG =   1.60;   BMIX_MAG =  1.00
     AMIN     =   0.10
     WC   =   100.;   INIMIX=   1;  MIXPRE=   1;  MAXMIX= -45

 Intra band minimization:
   WEIMIN = 0.0000     energy-eigenvalue tresh-hold
   EBREAK =  0.42E-05  absolut break condition
   DEPER  =   0.30     relativ break condition

   TIME   =   0.40     timestep for ELM

  volume/ion in A,a.u.               =      14.83       100.08
  Fermi-wavevector in a.u.,A,eV,Ry     =   1.057751  1.998860 15.222711  1.118838
  Thomas-Fermi vector in A             =   2.193036

 Write flags
   LWAVE        =      T    write WAVECAR
   LDOWNSAMPLE  =      F    k-point downsampling of WAVECAR
   LCHARG       =      T    write CHGCAR
   LVTOT        =      F    write LOCPOT, total local potential
   LVHAR        =      F    write LOCPOT, Hartree potential only
   LELF         =      F    write electronic localiz. function (ELF)
[...]
  167          m_sumb_d                              0.000001                          2   4
  168        strenl                                0.013799                            1   3
  169          spher                                 0.011613                         19   4
  170          phase                                 0.000387                        360   4
  171          proj1                                 0.001017                       1080   4
  172            crexp_mul_wave                        0.000307                     1080   5
  173          m_sumb_d                              0.000302                          1   4
  174        fft3d_mpi                             0.000500                           11   3
  175          fftbrc_mpi                            0.000476                         11   4
  176            fftbas_plan_mpi                       0.000475                       11   5
  177              dfftw_execute                         0.000101                     33   6
  178              map_forward                           0.000092                     10   6
  179                map_gather                            0.000032                    5   7
  180                m_alltoallv_z                         0.000040                    5   7
  181                map_scatter                           0.000012                    5   7
  182              map_backward                          0.000099                     12   6
  183                map_gather                            0.000021                    6   7
  184                m_alltoallv_z                         0.000062                    6   7
  185                map_scatter                           0.000014                    6   7
  186        ggaall_grid                           0.000424                            1   3
  187        m_sumb_d                              0.000006                            5   3
  188        forhar                                0.000149                            2   3
  189          m_sumb_d                              0.000003                          2   4
  190        strehar                               0.000115                            1   3
  191          m_sumb_d                              0.000000                          1   4
  192        chggra                                0.000276                            1   3
  193          fft3d_mpi                             0.000109                          3   4
  194            fftbrc_mpi                            0.000103                        3   5
  195              fftbas_plan_mpi                       0.000103                      3   6
  196                dfftw_execute                         0.000025                    9   7
  197                map_backward                          0.000009                    2   7
  198                  map_gather                            0.000002                  1   8
  199                  m_alltoallv_z                         0.000005                  1   8
  200                  map_scatter                           0.000002                  1   8
  201                map_forward                           0.000024                    4   7
  202                  map_gather                            0.000005                  2   8
  203                  m_alltoallv_z                         0.000012                  2   8
  204                  map_scatter                           0.000005                  2   8
  205          m_sumb_d                              0.000001                          2   4
  206          pothar                                0.000015                          1   4
  207            m_sumb_d                              0.000001                        1   5
  208        m_bcast_d                             0.000006                            2   3
  209      potlok                                0.001469                              1   2
  210        fft3d_mpi                             0.000520                           13   3
  211          fftbrc_mpi                            0.000487                         13   4
  212            fftbas_plan_mpi                       0.000485                       13   5
  213              dfftw_execute                         0.000107                     39   6
  214              map_forward                           0.000084                     14   6
  215                map_gather                            0.000016                    8   7
  216                m_alltoallv_z                         0.000041                    8   7
  217                map_scatter                           0.000016                    8   7
  218              map_backward                          0.000105                     12   6
  219                map_gather                            0.000015                    6   7
  220                m_alltoallv_z                         0.000068                    6   7
  221                map_scatter                           0.000016                    6   7
  222        ggaall_grid                           0.000484                            1   3
  223        m_sumb_d                              0.000006                            5   3
  224        pothar                                0.000014                            1   3
  225          m_sumb_d                              0.000001                          1   4
  226        m_bcast_d                             0.000006                            1   3
  227      potlok_metagga                        0.000000                              1   2
  228      set_dd_magatom                        0.000000                              1   2
  229      set_dd_paw                            0.000606                              1   2
  230        m_sumb_d                              0.000585                            7   3
  231      densta                                0.000252                              1   2
  232        m_sumb_d                              0.000094                           29   3

 Flat profile

 total_time                              0.501724           1
 fft3d                                   0.192040        4954
 lapack                                  0.095847         816
 eddav                                   0.037395           6
 m_alltoall_d                            0.030917       18456
 hamiltmu                                0.015559         816
 redis_pw                                0.015319        7184
 orth1                                   0.014926        2248
 m_bcast_z                               0.013627        1056
 m_sumb_d                                0.013188        3100
 spher                                   0.012582          20
 vhamil                                  0.011736        2448
 fftwav                                  0.008718        2506
 ggemm                                   0.004982         816
 inisym                                  0.004444           1
 sphpro_fast                             0.004099           2
 gemm                                    0.003597        2448
 proj1                                   0.003188        2928
 elmin                                   0.003102           1
 eccp                                    0.002998         720
 redis_proj                              0.002898        8952
 w1_copy                                 0.002679        7344
 newband                                 0.002677        1056
 m_bcast_d                               0.002482        1659
 kinhamil                                0.002338        2448
 vnlac0                                  0.001989        2448
 setdij_                                 0.001565          29
 apply_precond                           0.001539        1728
 fftext_mpi                              0.001464        2448
 ggaall_grid                             0.001391           3
 fft3d_mpi                               0.001195        2494
 work_mul_crexp                          0.001187        2448
 overl1                                  0.001154        2448
 phase                                   0.001152         681
 crexp_mul_wave                          0.001149        2928
 w1_projall                              0.001128         576
 densta                                  0.001076           7
 potlok                                  0.001049           2
 overl                                   0.001046        4216
 fftbas_plan_mpi                         0.000878          46
 fftwav_mpi                              0.000807        2506
 fornl                                   0.000779           1
 force_and_stress                        0.000710           1
 fewald                                  0.000601           1
 m_alltoallv_z                           0.000554          49
 strenl                                  0.000480           1
 setup_precond                           0.000465         720
 dfftw_execute                           0.000430         138
 truncate_high_frequency_w1              0.000279        3168
 map_gather                              0.000185          49
 orthch                                  0.000165           1
 lincom                                  0.000165          40
 chggra                                  0.000151           1
 forhar                                  0.000146           2
 map_scatter                             0.000144          49
 augmentation_charge                     0.000127           1
 set_charge                              0.000117           1
 strkin                                  0.000116           1
 strehar                                 0.000115           1
 strelo                                  0.000109           1
 choleski                                0.000086          40
 pw_charge                               0.000083          58
 forloc                                  0.000058           1
 stufak                                  0.000057           2
 proj                                    0.000054          40
 soft_charge                             0.000053           1
 pothar                                  0.000041           3
 set_dd_paw                              0.000040           3
 rsp                                     0.000037           1
 map_forward                             0.000037          48
 map_backward                            0.000025          44
 crpa_reader                             0.000015           1
 proall                                  0.000015           1
 depsum                                  0.000011           1
 posmap                                  0.000010           2
 fftbrc_mpi                              0.000008          46
 rcp                                     0.000005           1
 fordep                                  0.000003           1
 fft_gq                                  0.000002           1
 vectorpot                               0.000002           2
 set_dd_magatom                          0.000001           3
 rotate_active_occupied_orbital          0.000000           1
 redis_pw_over_bands                     0.000000           1
 potlok_metagga                          0.000000           2
  summed up times    1.0293118953704834

 Accumulative profile

 total_time                              1.029312           1
 elmin                                   0.487996           1
 eddav                                   0.481014           6
 fft3d                                   0.192040        4954
 hamiltmu                                0.130889         816
 fftwav_mpi                              0.110757        2506
 fftwav                                  0.109950        2506
 lapack                                  0.095847         816
 kinhamil                                0.095666        2448
 fft3d_mpi                               0.094264        2494
 fftext_mpi                              0.093328        2448
 newband                                 0.045943        1056
 redis_pw                                0.033453        7184
 m_alltoall_d                            0.030917       18456
 force_and_stress                        0.022239           1
 redis_proj                              0.015681        8952
 orth1                                   0.014926        2248
 strenl                                  0.013799           1
 m_bcast_z                               0.013627        1056
 m_sumb_d                                0.013188        3100
 spher                                   0.012582          20
 vhamil                                  0.011736        2448
 vnlac0                                  0.006773        2448
 ggemm                                   0.004982         816
 inisym                                  0.004454           1
 proj1                                   0.004337        2928
 sphpro_fast                             0.004188           2
 w1_projall                              0.004130         576
 gemm                                    0.003597        2448
 potlok                                  0.003310           2
 set_charge                              0.003224           1
 eccp                                    0.002998         720
 soft_charge                             0.002867           1
 w1_copy                                 0.002679        7344
 m_bcast_d                               0.002482        1659
 fftbrc_mpi                              0.002260          46
 fftbas_plan_mpi                         0.002252          46
 set_dd_paw                              0.001902           3
 orthch                                  0.001833           1
 setdij_                                 0.001711          29
 apply_precond                           0.001539        1728
 densta                                  0.001440           7
 ggaall_grid                             0.001391           3
 work_mul_crexp                          0.001187        2448
 overl1                                  0.001154        2448
 phase                                   0.001152         681
 crexp_mul_wave                          0.001149        2928
 overl                                   0.001046        4216
 fornl                                   0.000835           1
 fewald                                  0.000657           1
 m_alltoallv_z                           0.000554          49
 map_backward                            0.000486          44
 setup_precond                           0.000465         720
 map_forward                             0.000458          48
 proall                                  0.000449           1
 dfftw_execute                           0.000430         138
 proj                                    0.000372          40
 fordep                                  0.000301           1
 truncate_high_frequency_w1              0.000279        3168
 chggra                                  0.000276           1
 augmentation_charge                     0.000206           1
 map_gather                              0.000185          49
 lincom                                  0.000165          40
 forhar                                  0.000149           2
 map_scatter                             0.000144          49
 strkin                                  0.000118           1
 strehar                                 0.000115           1
 strelo                                  0.000110           1
 fft_gq                                  0.000089           1
 choleski                                0.000086          40
 pw_charge                               0.000083          58
 forloc                                  0.000060           1
 stufak                                  0.000057           2
 pothar                                  0.000044           3
 rsp                                     0.000037           1
 depsum                                  0.000016           1
 crpa_reader                             0.000015           1
 posmap                                  0.000010           2
 rcp                                     0.000005           1
 vectorpot                               0.000002           2
 set_dd_magatom                          0.000001           3
 rotate_active_occupied_orbital          0.000000           1
 redis_pw_over_bands                     0.000000           1
 potlok_metagga                          0.000000           2

Profiling took   0.017863  0.008951  0.003226  0.003188 seconds
Profiling took   0.008652 seconds